
Gurobi 9.5.0 (win64) logging started Tue Dec  7 12:39:34 2021

Set parameter LogFile to value "../results/logs/log_2021_12_07_12_26.csv_7_45.log"
Set parameter Method to value 3
Gurobi Optimizer version 9.5.0 build v9.5.0rc5 (win64)
Thread count: 6 physical cores, 12 logical processors, using up to 12 threads
Optimize a model with 628 rows, 9882 columns and 12913 nonzeros
Model fingerprint: 0x7bca6998
Variable types: 4941 continuous, 4941 integer (4941 binary)
Coefficient statistics:
  Matrix range     [1e+00, 7e+00]
  Objective range  [1e+00, 1e+00]
  Bounds range     [1e+00, 1e+00]
  RHS range        [1e+00, 5e+01]
Found heuristic solution: objective -0.0000000
Presolve removed 393 rows and 9496 columns
Presolve time: 0.01s
Presolved: 235 rows, 386 columns, 1352 nonzeros
Extracted 86 lazy constraints
Variable types: 211 continuous, 175 integer (173 binary)

Root relaxation: objective 1.216411e+02, 98 iterations, 0.00 seconds (0.00 work units)

    Nodes    |    Current Node    |     Objective Bounds      |     Work
 Expl Unexpl |  Obj  Depth IntInf | Incumbent    BestBd   Gap | It/Node Time

     0     0  121.64106    0   44   -0.00000  121.64106      -     -    0s
H    0     0                      10.0000000  121.64106  1116%     -    0s
H    0     0                      12.0000000  121.64106   914%     -    0s
     0     0   41.81106    0   57   12.00000   41.81106   248%     -    0s
     0     0   41.70709    0   52   12.00000   41.70709   248%     -    0s
     0     0   41.70351    0   51   12.00000   41.70351   248%     -    0s
     0     0   37.57221    0   47   12.00000   37.57221   213%     -    0s
     0     0   37.03562    0   32   12.00000   37.03562   209%     -    0s
     0     0   37.02757    0   32   12.00000   37.02757   209%     -    0s
     0     0   36.69313    0   26   12.00000   36.69313   206%     -    0s
     0     0   36.65331    0   25   12.00000   36.65331   205%     -    0s
H    0     0                      15.0000000   36.65331   144%     -    0s
     0     0   36.32485    0   15   15.00000   36.32485   142%     -    0s
     0     0   36.32367    0   15   15.00000   36.32367   142%     -    0s
H    0     0                      16.0000000   36.28298   127%     -    0s
     0     0   36.28298    0   34   16.00000   36.28298   127%     -    0s
     0     0   36.28298    0   32   16.00000   36.28298   127%     -    0s
H    0     0                      35.0000000   36.28298  3.67%     -    0s
     0     0   36.28298    0   25   35.00000   36.28298  3.67%     -    0s
     0     0     cutoff    0        35.00000   35.00000  0.00%     -    0s

Cutting planes:
  Gomory: 11
  Implied bound: 2
  MIR: 28
  RLT: 1
  Relax-and-lift: 2

Explored 1 nodes (842 simplex iterations) in 0.15 seconds (0.05 work units)
Thread count was 12 (of 12 available processors)

Solution count 7: 35 29 16 ... -0

Optimal solution found (tolerance 1.00e-04)
Best objective 3.500000000000e+01, best bound 3.500000000000e+01, gap 0.0000%
